p cnf 42 20
10 10 25 0
-9 13 4 0
25 10 -9 0
-35 13 28 0
-29 29 4 0
1 35 -24 0
12 -42 -41 0
-41 17 -4 0
-2 39 9 0
32 -21 9 0
-13 6 34 0
-17 -39 1 0
-4 18 -5 0
31 38 32 0
3 -14 26 0
-1 31 -8 0
2 -38 25 0
-14 -12 28 0
5 5 -39 0
40 -41 37 0
